1237	1266	1328	1288	1312
1178	1211	1222	1185	1272
1272	1212	1227	1254	1167
1268	1268	1228	1281	1283
1263	1151	1272	1271	1271
1273	1280	1265	1265	1212
1267	1288	1229	1151	1158
1281	1165	1281	1240	1186

